 1  2  3  4  5  6  7  8  9 10  
36  0  0  0  0  0  0  0  0 11  
35  0  0  0  0  0  0  0  0 12  
34  0  0  0  0  0  0  0  0 13  
33  0  0  0  0  0  0  0  0 14  
32  0  0  0  0  0  0  0  0 15  
31  0  0  0  0  0  0  0  0 16  
30  0  0  0  0  0  0  0  0 17  
29  0  0  0  0  0  0  0  0 18  
28 27 26 25 24 23 22 21 20 19  
